x low 4.00
p edge 44 172
n 0 1.00
n 4 1.00
n 5 1.00
n 6 1.00
n 10 1.00
n 18 1.00
n 24 1.00
n 1 1.00
n 3 1.00
n 7 1.00
n 9 1.00
n 19 1.00
n 23 1.00
n 2 1.00
n 8 1.00
n 20 1.00
n 22 1.00
n 27 1.00
n 21 1.00
n 11 1.00
n 12 1.00
n 30 1.00
n 35 1.00
n 13 1.00
n 17 1.00
n 31 1.00
n 14 1.00
n 16 1.00
n 32 1.00
n 33 1.00
n 15 1.00
n 34 1.00
n 36 1.00
n 41 1.00
n 42 1.00
n 46 1.00
n 47 1.00
n 37 1.00
n 43 1.00
n 44 1.00
n 45 1.00
n 38 1.00
n 39 1.00
n 40 1.00
e 0 4
e 0 5
e 0 6
e 0 10
e 0 18
e 0 24
e 1 3
e 1 5
e 1 7
e 1 9
e 1 19
e 1 23
e 2 3
e 2 4
e 2 8
e 2 20
e 2 22
e 2 27
e 3 7
e 3 9
e 3 21
e 3 27
e 4 6
e 4 10
e 4 20
e 4 22
e 5 11
e 5 19
e 5 23
e 5 24
e 6 10
e 6 11
e 6 12
e 6 30
e 6 35
e 7 9
e 7 11
e 7 13
e 7 17
e 7 31
e 8 9
e 8 10
e 8 14
e 8 16
e 8 32
e 8 33
e 9 15
e 9 32
e 9 33
e 10 14
e 10 16
e 10 34
e 11 13
e 11 17
e 11 30
e 11 35
e 12 16
e 12 17
e 12 18
e 12 22
e 12 36
e 12 41
e 12 42
e 12 46
e 12 47
e 13 14
e 13 15
e 13 17
e 13 19
e 13 21
e 13 37
e 13 43
e 13 44
e 13 45
e 14 15
e 14 16
e 14 20
e 14 38
e 14 39
e 14 43
e 14 44
e 14 45
e 15 19
e 15 21
e 15 38
e 15 39
e 15 43
e 15 44
e 15 45
e 16 17
e 16 18
e 16 22
e 16 40
e 16 42
e 16 46
e 16 47
e 17 23
e 17 36
e 17 41
e 17 42
e 17 46
e 17 47
e 18 22
e 18 23
e 18 42
e 18 47
e 19 21
e 19 23
e 19 43
e 20 21
e 20 22
e 20 44
e 20 45
e 21 44
e 21 45
e 22 46
e 23 42
e 23 47
e 24 30
e 24 34
e 27 31
e 27 33
e 30 34
e 30 35
e 30 36
e 31 33
e 31 35
e 31 37
e 31 41
e 32 33
e 32 34
e 32 38
e 32 40
e 33 39
e 34 38
e 34 40
e 35 37
e 35 41
e 36 40
e 36 41
e 36 42
e 36 46
e 37 39
e 37 41
e 37 43
e 37 45
e 38 39
e 38 40
e 38 44
e 39 43
e 39 45
e 40 42
e 40 46
e 41 47
e 42 46
e 42 47
e 43 44
e 43 45
e 44 45
e 46 47
e 4 24
e 4 30
e 4 34
e 1 27
e 1 31
e 1 33
e 0 35
e 5 35
e 24 35
e 3 32
e 2 32
e 27 32
